VERTICES = 48
EDGES = 94
46 42
46 43
20 25
15 30
31 14
43 47
24 25
47 46
34 15
13 36
24 27
32 19
35 18
31 2
5 30
33 2
32 5
2 35
7 32
6 33
1 38
5 35
3 37
5 36
39 4
32 20
36 20
40 16
23 34
25 32
27 30
13 46
11 48
35 28
45 19
19 48
41 6
45 6
48 5
41 22
42 23
35 31
10 12
44 25
11 14
24 47
17 10
15 12
26 46
17 12
28 47
2 12
10 6
3 14
16 2
8 11
12 7
14 6
1 19
14 9
41 33
15 9
32 44
46 30
43 33
11 24
39 40
26 10
15 21
15 23
14 24
46 36
28 12
18 25
15 28
14 29
9 1
2 8
27 17
9 3
19 28
5 22
20 8
25 6
5 26
27 4
9 23
6 26
29 3
42 40
5 29
10 30
6 29
41 45
